p cnf 270 703
-3 4 0 
-3 24 0 
-93 86 0 
-93 87 0 
-94 -95 0 
-95 -96 -99 0 
-95 96 99 0 
-96 -97 -98 0 
-96 97 98 0 
-99 100 103 0 
-100 101 102 0 
-101 92 0 
-101 91 0 
-4 5 0 
-4 22 0 
-102 92 0 
-102 93 0 
-103 93 0 
-103 91 0 
-104 -105 0 
-105 -106 -109 0 
-105 106 109 0 
-106 -107 -108 0 
-106 107 108 0 
-109 110 113 0 
-110 111 112 0 
-111 97 0 
-111 98 0 
-5 6 0 
-5 20 0 
-112 98 0 
-112 99 0 
-113 97 0 
-113 99 0 
-114 115 0 
-114 135 0 
-115 116 0 
-115 133 0 
-116 117 0 
-116 131 0 
-117 118 0 
-117 129 0 
-118 119 0 
-118 127 0 
-119 120 0 
-119 125 0 
-120 121 0 
-120 123 0 
-121 -122 11 0 
-121 -11 122 0 
-6 7 0 
-6 18 0 
-123 -124 13 0 
-123 -13 124 0 
-125 -126 15 0 
-125 -15 126 0 
-127 -128 17 0 
-127 -17 128 0 
-129 -130 19 0 
-129 -19 130 0 
-131 -132 21 0 
-131 -21 132 0 
-7 8 0 
-7 16 0 
-133 -134 23 0 
-133 -23 134 0 
-135 -136 25 0 
-135 -25 136 0 
-1 137 0 
1 139 0 
-137 138 0 
-139 -27 137 0 
-139 27 140 0 
-140 -39 137 0 
-140 39 141 0 
-8 9 0 
-8 14 0 
-141 -67 142 0 
-141 67 144 0 
-142 -138 143 0 
-142 -143 138 0 
-144 -72 142 0 
-144 72 145 0 
-145 -76 142 0 
-145 76 146 0 
-146 -147 142 0 
-146 147 149 0 
-147 148 0 
-147 36 0 
-148 41 0 
-148 78 0 
-149 -150 142 0 
-149 150 152 0 
-150 151 0 
-150 36 0 
-9 10 0 
-9 12 0 
-151 69 0 
-151 78 0 
-152 -153 142 0 
-152 153 155 0 
-153 154 0 
-153 28 0 
-154 37 0 
-155 -156 142 0 
-155 156 158 0 
-156 157 0 
-156 36 0 
-157 74 0 
-157 78 0 
-158 -159 142 0 
-158 159 160 0 
-159 154 0 
-159 40 0 
-160 -161 162 0 
-160 161 166 0 
-10 11 0 
-161 154 0 
-161 68 0 
-162 163 0 
-163 164 0 
-164 165 0 
-165 -138 0 
-166 -167 168 0 
-166 167 142 0 
-167 154 0 
-167 73 0 
-168 -169 137 0 
-168 169 142 0 
-169 104 0 
-169 170 0 
-170 94 0 
-170 171 0 
-171 172 0 
-171 173 0 
-172 84 0 
-173 89 0 
-1 174 0 
1 176 0 
-174 175 0 
-176 -177 174 0 
-176 177 188 0 
-177 178 0 
-177 186 0 
-178 179 0 
-178 184 0 
-12 13 0 
-179 180 0 
-179 182 0 
-180 -181 0 
-182 -183 0 
-184 -185 0 
-186 -187 0 
-188 -189 193 0 
-188 189 197 0 
-189 186 0 
-189 190 0 
-190 184 0 
-190 191 0 
-191 182 0 
-191 192 0 
-192 181 0 
-193 194 0 
-194 195 0 
-195 196 0 
-196 -175 0 
-197 -175 198 0 
-197 -198 175 0 
-14 15 0 
-1 199 0 
1 204 0 
-199 200 0 
-200 201 0 
-201 202 0 
-202 -203 0 
-204 -27 199 0 
-204 27 205 0 
-205 -39 206 0 
-205 39 208 0 
-206 -203 207 0 
-206 -207 203 0 
-208 -67 206 0 
-208 67 209 0 
-209 -72 206 0 
-209 72 210 0 
-210 -76 206 0 
-210 76 211 0 
-211 -147 212 0 
-211 147 237 0 
-212 -213 236 0 
-212 213 206 0 
-213 214 0 
-213 234 0 
-214 215 0 
-214 232 0 
-215 216 0 
-215 230 0 
-216 217 0 
-216 228 0 
-217 218 0 
-217 226 0 
-16 17 0 
-218 219 0 
-218 224 0 
-219 220 0 
-219 222 0 
-220 -221 0 
-222 -223 0 
-224 -225 0 
-226 -227 0 
-228 -229 0 
-230 -231 0 
-232 -233 0 
-234 -235 0 
-236 203 0 
-237 -150 199 0 
-237 150 206 0 
-18 19 0 
-1 238 0 
1 243 0 
-238 239 0 
-239 240 0 
-240 241 0 
-241 -242 0 
-243 -27 238 0 
-243 27 244 0 
-244 -39 238 0 
-244 39 245 0 
-245 -67 246 0 
-245 67 248 0 
-246 -242 247 0 
-246 -247 242 0 
-248 -72 246 0 
-248 72 249 0 
-249 -76 246 0 
-249 76 250 0 
-250 -147 251 0 
-250 147 246 0 
-251 -213 252 0 
-251 213 238 0 
-252 242 0 
-1 253 0 
1 258 0 
-253 254 0 
-254 255 0 
-255 256 0 
-20 21 0 
-256 -257 0 
-258 -27 253 0 
-258 27 259 0 
-259 -39 253 0 
-259 39 260 0 
-260 -67 261 0 
-260 67 263 0 
-261 -257 262 0 
-261 -262 257 0 
-263 -72 261 0 
-263 72 264 0 
-264 -76 261 0 
-264 76 265 0 
-265 -147 261 0 
-265 147 266 0 
-266 -150 261 0 
-266 150 267 0 
-267 -153 268 0 
-267 153 269 0 
-268 257 0 
-269 -156 253 0 
-269 156 270 0 
-270 -159 253 0 
-270 159 261 0 
-22 23 0 
-24 25 0 
-26 -27 3 0 
-26 27 38 0 
-27 28 0 
-27 36 0 
-28 29 0 
-28 34 0 
-29 30 0 
-29 32 0 
-30 -31 0 
-32 -33 0 
-34 -35 0 
-36 -37 0 
-38 -39 43 0 
-38 39 66 0 
-39 36 0 
-39 40 0 
-40 34 0 
-40 41 0 
-41 32 0 
-41 42 0 
-42 31 0 
-43 44 0 
-43 64 0 
-44 45 0 
-44 62 0 
-45 46 0 
-45 60 0 
-46 47 0 
-46 58 0 
-47 48 0 
-47 56 0 
-48 49 0 
-48 54 0 
-49 50 0 
-49 52 0 
-50 -11 51 0 
-50 -51 11 0 
-1 3 0 
1 26 0 
-52 -13 53 0 
-52 -53 13 0 
-54 -15 55 0 
-54 -55 15 0 
-56 -17 57 0 
-56 -57 17 0 
-58 -19 59 0 
-58 -59 19 0 
-60 -21 61 0 
-60 -61 21 0 
-1 2 0 
-62 -23 63 0 
-62 -63 23 0 
-64 -25 65 0 
-64 -65 25 0 
-66 -67 43 0 
-66 67 71 0 
-67 36 0 
-67 68 0 
-68 34 0 
-68 69 0 
-69 30 0 
-69 70 0 
-70 33 0 
-71 -72 43 0 
-71 72 75 0 
-72 36 0 
-72 73 0 
-73 34 0 
-73 74 0 
-74 42 0 
-74 70 0 
-75 -76 79 0 
-75 76 43 0 
-76 36 0 
-76 77 0 
-77 29 0 
-77 78 0 
-78 35 0 
-79 -80 114 0 
-79 80 43 0 
-80 104 0 
-80 81 0 
-81 94 0 
-81 82 0 
-82 83 0 
-82 88 0 
-83 -84 0 
-84 85 0 
-85 -86 -87 0 
-85 86 87 0 
-88 -89 0 
-89 -90 -93 0 
-89 90 93 0 
-90 -91 -92 0 
-90 91 92 0 
3 -4 -24 0 
93 -86 -87 0 
94 95 0 
95 -96 99 0 
95 -99 96 0 
96 -97 98 0 
96 -98 97 0 
99 -100 0 
99 -103 0 
100 -101 0 
100 -102 0 
101 -91 -92 0 
4 -5 -22 0 
102 -92 -93 0 
103 -91 -93 0 
104 105 0 
105 -106 109 0 
105 -109 106 0 
106 -107 108 0 
106 -108 107 0 
109 -110 0 
109 -113 0 
110 -111 0 
110 -112 0 
111 -97 -98 0 
5 -6 -20 0 
112 -98 -99 0 
113 -97 -99 0 
114 -115 -135 0 
115 -116 -133 0 
116 -117 -131 0 
117 -118 -129 0 
118 -119 -127 0 
119 -120 -125 0 
120 -121 -123 0 
121 -11 -122 0 
121 11 122 0 
6 -7 -18 0 
123 -13 -124 0 
123 13 124 0 
125 -15 -126 0 
125 15 126 0 
127 -17 -128 0 
127 17 128 0 
129 -19 -130 0 
129 19 130 0 
131 -21 -132 0 
131 21 132 0 
7 -8 -16 0 
133 -23 -134 0 
133 23 134 0 
135 -25 -136 0 
135 25 136 0 
137 -138 0 
139 -137 -140 0 
139 -27 -137 0 
139 27 -140 0 
140 -137 -141 0 
140 -39 -137 0 
140 39 -141 0 
8 -9 -14 0 
141 -142 -144 0 
141 -67 -142 0 
141 67 -144 0 
142 -138 -143 0 
142 138 143 0 
144 -142 -145 0 
144 -72 -142 0 
144 72 -145 0 
145 -142 -146 0 
145 -76 -142 0 
145 76 -146 0 
146 -142 -149 0 
146 -147 -142 0 
146 147 -149 0 
147 -148 -36 0 
148 -41 -78 0 
149 -142 -152 0 
149 -150 -142 0 
149 150 -152 0 
150 -151 -36 0 
9 -10 -12 0 
151 -69 -78 0 
152 -142 -155 0 
152 -153 -142 0 
152 153 -155 0 
153 -28 -154 0 
154 -37 0 
155 -142 -158 0 
155 -156 -142 0 
155 156 -158 0 
156 -157 -36 0 
157 -74 -78 0 
158 -142 -160 0 
158 -159 -142 0 
158 159 -160 0 
159 -40 -154 0 
160 -161 -162 0 
160 -162 -166 0 
160 161 -166 0 
10 -11 0 
161 -68 -154 0 
162 -163 0 
163 -164 0 
164 -165 0 
165 138 0 
166 -167 -168 0 
166 -168 -142 0 
166 167 -142 0 
167 -73 -154 0 
168 -137 -142 0 
168 -169 -137 0 
168 169 -142 0 
169 -170 -104 0 
170 -171 -94 0 
171 -172 -173 0 
172 -84 0 
173 -89 0 
174 -175 0 
176 -174 -188 0 
176 -177 -174 0 
176 177 -188 0 
177 -178 -186 0 
178 -179 -184 0 
12 -13 0 
179 -180 -182 0 
180 181 0 
182 183 0 
184 185 0 
186 187 0 
188 -189 -193 0 
188 -193 -197 0 
188 189 -197 0 
189 -190 -186 0 
190 -191 -184 0 
191 -192 -182 0 
192 -181 0 
193 -194 0 
194 -195 0 
195 -196 0 
196 175 0 
197 -175 -198 0 
197 175 198 0 
14 -15 0 
199 -200 0 
200 -201 0 
201 -202 0 
202 203 0 
204 -199 -205 0 
204 -27 -199 0 
204 27 -205 0 
205 -206 -208 0 
205 -39 -206 0 
205 39 -208 0 
206 -203 -207 0 
206 203 207 0 
208 -206 -209 0 
208 -67 -206 0 
208 67 -209 0 
209 -206 -210 0 
209 -72 -206 0 
209 72 -210 0 
210 -206 -211 0 
210 -76 -206 0 
210 76 -211 0 
211 -147 -212 0 
211 -212 -237 0 
211 147 -237 0 
212 -213 -236 0 
212 -236 -206 0 
212 213 -206 0 
213 -214 -234 0 
214 -215 -232 0 
215 -216 -230 0 
216 -217 -228 0 
217 -218 -226 0 
16 -17 0 
218 -219 -224 0 
219 -220 -222 0 
220 221 0 
222 223 0 
224 225 0 
226 227 0 
228 229 0 
230 231 0 
232 233 0 
234 235 0 
236 -203 0 
237 -150 -199 0 
237 -199 -206 0 
237 150 -206 0 
18 -19 0 
238 -239 0 
239 -240 0 
240 -241 0 
241 242 0 
243 -238 -244 0 
243 -27 -238 0 
243 27 -244 0 
244 -238 -245 0 
244 -39 -238 0 
244 39 -245 0 
245 -246 -248 0 
245 -67 -246 0 
245 67 -248 0 
246 -242 -247 0 
246 242 247 0 
248 -246 -249 0 
248 -72 -246 0 
248 72 -249 0 
249 -246 -250 0 
249 -76 -246 0 
249 76 -250 0 
250 -147 -251 0 
250 -251 -246 0 
250 147 -246 0 
251 -213 -252 0 
251 -252 -238 0 
251 213 -238 0 
252 -242 0 
253 -254 0 
254 -255 0 
255 -256 0 
20 -21 0 
256 257 0 
258 -253 -259 0 
258 -27 -253 0 
258 27 -259 0 
259 -253 -260 0 
259 -39 -253 0 
259 39 -260 0 
260 -261 -263 0 
260 -67 -261 0 
260 67 -263 0 
261 -257 -262 0 
261 257 262 0 
263 -261 -264 0 
263 -72 -261 0 
263 72 -264 0 
264 -261 -265 0 
264 -76 -261 0 
264 76 -265 0 
265 -147 -261 0 
265 -261 -266 0 
265 147 -266 0 
266 -150 -261 0 
266 -261 -267 0 
266 150 -267 0 
267 -153 -268 0 
267 -268 -269 0 
267 153 -269 0 
268 -257 0 
269 -156 -253 0 
269 -253 -270 0 
269 156 -270 0 
270 -159 -253 0 
270 -253 -261 0 
270 159 -261 0 
22 -23 0 
24 -25 0 
26 -3 -38 0 
26 -27 -3 0 
26 27 -38 0 
27 -28 -36 0 
28 -29 -34 0 
29 -30 -32 0 
30 31 0 
32 33 0 
34 35 0 
36 37 0 
38 -39 -43 0 
38 -43 -66 0 
38 39 -66 0 
39 -40 -36 0 
40 -41 -34 0 
41 -42 -32 0 
42 -31 0 
43 -44 -64 0 
44 -45 -62 0 
45 -46 -60 0 
46 -47 -58 0 
47 -48 -56 0 
48 -49 -54 0 
49 -50 -52 0 
50 -11 -51 0 
50 11 51 0 
52 -13 -53 0 
52 13 53 0 
54 -15 -55 0 
54 15 55 0 
56 -17 -57 0 
56 17 57 0 
58 -19 -59 0 
58 19 59 0 
60 -21 -61 0 
60 21 61 0 
1 -2 0 
62 -23 -63 0 
62 23 63 0 
64 -25 -65 0 
64 25 65 0 
66 -43 -71 0 
66 -67 -43 0 
66 67 -71 0 
67 -68 -36 0 
68 -69 -34 0 
69 -30 -70 0 
70 -33 0 
71 -43 -75 0 
71 -72 -43 0 
71 72 -75 0 
72 -73 -36 0 
73 -74 -34 0 
74 -42 -70 0 
75 -76 -79 0 
75 -79 -43 0 
75 76 -43 0 
76 -77 -36 0 
77 -29 -78 0 
78 -35 0 
79 -114 -43 0 
79 -80 -114 0 
79 80 -43 0 
80 -81 -104 0 
81 -82 -94 0 
82 -83 -88 0 
83 84 0 
84 -85 0 
85 -86 87 0 
85 -87 86 0 
88 89 0 
89 -93 90 0 
89 -90 93 0 
90 -92 91 0 
90 -91 92 0 
